(set-logic QF_S)
(declare-fun var0 () String)
(declare-fun var1 () Int)
(declare-fun var2 () Int)
(declare-fun var3 () String)
(declare-fun var4 () Int)
(declare-fun var5 () Int)
(declare-fun var6 () String)
(declare-fun var7 () String)
(assert (str.suffixof (str.substr var0 var1 var2) (str.at var3 var4)))
(assert (< var5 var4))
(assert (<= (str.len (str.replace var6 var7 var3)) (str.len var0)))
(assert (str.contains var3 var6))
(check-sat)